p td 120 38
0 82
3 48
3 97
4 58
5 89
5 114
6 50
7 12
10 77
11 46
19 89
22 56
24 118
27 90
27 91
29 45
34 109
35 111
36 43
37 59
40 65
41 111
46 75
49 53
54 68
58 86
59 69
60 116
62 72
63 95
63 117
70 112
73 96
75 85
79 105
82 117
86 116
95 106
